1 1 -2 0
1 -3 -4 0
1 -3 5 0
1 6 -7 0
1 -6 -8 0
1 -6 -9 0
1 10 11 0
1 10 7 0
1 -10 -12 0
1 10 13 0
1 -10 -6 0
1 -13 -14 0
1 13 -15 0
1 -13 -3 0
1 13 -5 0
1 -5 -16 0
1 -4 16 0
1 -4 -17 0
1 -4 -18 0
1 4 19 0
1 -4 20 0
1 4 -1 0
1 -9 16 0
1 -9 17 0
1 9 18 0
1 -9 -3 0
1 9 4 0
1 9 -21 0
1 9 -6 0
1 -22 -13 0
1 -22 -21 0
1 -15 -13 0
1 -15 8 0
1 15 -22 0
1 -23 11 0
1 23 14 0
1 23 8 0
1 23 -24 0
1 -23 -20 0
1 -14 -11 0
1 -14 -7 0
1 14 24 0
1 -14 25 0
1 8 -26 0
1 -8 -14 0
1 -8 23 0
1 8 -22 0
1 8 -6 0
1 8 -27 0
1 -7 -26 0
1 7 28 0
1 -7 14 0
1 -7 -29 0
1 7 30 0
1 7 31 0
1 7 23 0
1 -7 -6 0
1 32 29 0
1 -32 -33 0
1 -32 22 0
1 32 6 0
1 11 -34 0
1 -11 35 0
1 -11 16 0
1 11 10 0
1 11 -32 0
1 -11 -23 0
1 11 22 0
1 11 -6 0
1 11 27 0
1 31 36 0
1 -31 -25 0
1 -37 -7 0
1 37 36 0
1 37 8 0
1 -37 -24 0
1 37 -25 0
1 30 38 0
1 30 -39 0
1 -30 -8 0
1 30 -24 0
1 26 -38 0
1 26 -30 0
1 26 -24 0
1 26 -25 0
1 25 -37 0
1 25 -40 0
1 -25 -30 0
1 25 41 0
1 -36 37 0
1 36 40 0
1 36 -30 0
1 36 -25 0
1 24 42 0
1 -24 31 0
1 24 -23 0
1 38 26 0
1 -38 40 0
1 -38 -31 0
1 38 24 0
1 -38 -43 0
1 -38 -44 0
1 -38 27 0
1 2 -45 0
1 -2 46 0
1 -46 -3 0
1 -46 -47 0
1 46 2 0
1 48 -49 0
1 -48 12 0
1 48 -50 0
1 48 -51 0
1 48 -52 0
1 48 6 0
1 12 -53 0
1 12 -54 0
1 12 50 0
1 -12 -47 0
1 12 -51 0
1 12 52 0
1 45 -46 0
1 -45 20 0
1 -45 -21 0
1 47 -18 0
1 -47 -12 0
1 47 55 0
1 47 -20 0
1 -53 56 0
1 -53 12 0
1 -53 -50 0
1 53 -2 0
1 50 -53 0
1 50 -12 0
1 -50 57 0
1 -50 48 0
1 -21 -45 0
1 21 -49 0
1 21 -4 0
1 21 52 0
1 -21 22 0
1 18 -45 0
1 -18 15 0
1 18 -4 0
1 18 -21 0
1 20 17 0
1 -20 49 0
1 -20 -58 0
1 20 51 0
1 20 52 0
1 -20 59 0
1 17 -52 0
1 -17 54 0
1 -17 47 0
1 17 -51 0
1 17 20 0
1 -17 59 0
1 17 -60 0
1 54 -61 0
1 -54 34 0
1 54 -17 0
1 54 -18 0
1 -54 -39 0
1 54 19 0
1 52 -61 0
1 -52 -16 0
1 52 17 0
1 52 18 0
1 52 -39 0
1 52 -62 0
1 49 17 0
1 49 -63 0
1 49 64 0
1 -49 -20 0
1 -51 -17 0
1 51 18 0
1 -51 64 0
1 19 -11 0
1 19 -54 0
1 -19 -58 0
1 19 -32 0
1 16 -37 0
1 -16 -58 0
1 16 -4 0
1 -16 -32 0
1 -16 19 0
1 16 9 0
1 39 65 0
1 39 -11 0
1 39 -58 0
1 39 66 0
1 -39 52 0
1 39 -60 0
1 34 65 0
1 34 11 0
1 34 -66 0
1 -34 67 0
1 -34 32 0
1 -34 -39 0
1 -34 59 0
1 34 -68 0
1 -58 -34 0
1 -58 -42 0
1 -58 -29 0
1 58 -39 0
1 58 -44 0
1 -60 -69 0
1 60 -29 0
1 -60 39 0
1 60 -19 0
1 -60 70 0
1 71 17 0
1 71 -69 0
1 71 -19 0
1 71 59 0
1 71 70 0
1 59 -34 0
1 59 69 0
1 -59 64 0
1 59 -39 0
1 59 72 0
1 59 70 0
1 -29 -11 0
1 -29 -7 0
1 29 -38 0
1 -29 -58 0
1 -29 -64 0
1 -29 -32 0
1 29 24 0
1 29 -68 0
1 -29 -27 0
1 27 -7 0
1 27 66 0
1 42 -65 0
1 -42 -73 0
1 -42 74 0
1 -44 -28 0
1 44 -42 0
1 -44 -66 0
1 -44 -67 0
1 44 -74 0
1 -44 24 0
1 -44 68 0
1 -67 -65 0
1 67 75 0
1 67 76 0
1 -67 -43 0
1 65 -34 0
1 65 -77 0
1 -65 29 0
1 -65 -39 0
1 65 -76 0
1 66 29 0
1 -66 75 0
1 66 70 0
1 -66 27 0
1 -68 78 0
1 -68 69 0
1 68 42 0
1 -68 39 0
1 68 -79 0
1 40 28 0
1 -40 36 0
1 40 -69 0
1 -40 -24 0
1 40 25 0
1 -40 -43 0
1 43 -35 0
1 43 -28 0
1 -43 67 0
1 43 -24 0
1 43 25 0
1 -77 -35 0
1 77 28 0
1 77 76 0
1 77 78 0
1 77 33 0
1 77 74 0
1 76 80 0
1 -76 -33 0
1 76 -74 0
1 76 -41 0
1 -74 -81 0
1 74 8 0
1 74 -44 0
1 -28 -7 0
1 28 81 0
1 -28 -77 0
1 28 74 0
1 28 -76 0
1 -33 82 0
1 33 -77 0
1 -33 -76 0
1 -33 -43 0
1 35 83 0
1 35 82 0
1 35 75 0
1 81 80 0
1 -81 -82 0
1 -81 -84 0
1 84 -28 0
1 -84 -81 0
1 84 80 0
1 -84 85 0
1 84 -75 0
1 -84 -41 0
1 86 85 0
1 86 -41 0
1 -87 -86 0
1 87 -74 0
1 87 -88 0
1 41 80 0
1 -41 77 0
1 41 76 0
1 80 -86 0
1 80 36 0
1 -80 81 0
1 -80 87 0
1 80 -76 0
1 85 86 0
1 -85 -89 0
1 -85 -87 0
1 85 -24 0
1 85 76 0
1 89 -77 0
1 -89 -76 0
1 -64 -49 0
1 64 54 0
1 -64 71 0
1 -64 55 0
1 64 -51 0
1 64 52 0
1 -61 -54 0
1 61 57 0
1 -61 -52 0
1 61 -27 0
1 73 -56 0
1 73 63 0
1 73 90 0
1 73 -59 0
1 -73 91 0
1 91 -92 0
1 91 -63 0
1 91 55 0
1 91 -44 0
1 -92 61 0
1 -92 55 0
1 92 70 0
1 -92 -91 0
1 -55 92 0
1 55 78 0
1 55 -73 0
1 55 -64 0
1 -55 79 0
1 55 91 0
1 -56 61 0
1 -56 -73 0
1 56 -57 0
1 -56 91 0
1 57 61 0
1 57 56 0
1 57 91 0
1 69 -92 0
1 69 71 0
1 -69 -40 0
1 -69 -59 0
1 -69 -68 0
1 70 -66 0
1 70 55 0
1 -70 -68 0
1 -78 92 0
1 -78 72 0
1 78 93 0
1 -78 79 0
1 -78 -68 0
1 79 -63 0
1 -79 -55 0
1 -79 62 0
1 -79 76 0
1 -79 -72 0
1 -94 -62 0
1 -94 -73 0
1 -94 -75 0
1 94 -79 0
1 94 70 0
1 -62 -83 0
1 -62 94 0
1 62 -78 0
1 62 69 0
1 62 73 0
1 62 -88 0
1 62 52 0
1 63 49 0
1 -63 -73 0
1 63 79 0
1 -63 91 0
1 -90 78 0
1 90 -69 0
1 -90 73 0
1 90 51 0
1 90 -79 0
1 82 35 0
1 -82 -62 0
1 82 93 0
1 82 95 0
1 82 -75 0
1 75 -65 0
1 75 -35 0
1 75 82 0
1 -75 94 0
1 -75 -95 0
1 -75 33 0
1 -75 84 0
1 75 -62 0
1 -75 -68 0
1 83 -86 0
1 -83 62 0
1 -88 35 0
1 -88 -83 0
1 88 -72 0
1 -88 96 0
1 -95 -82 0
1 -95 -58 0
1 95 75 0
1 -95 79 0
1 -96 95 0
1 96 -75 0
1 96 60 0
1 93 -82 0
1 93 -75 0
1 -72 -59 0
1 72 79 0
